(declare-const |param1':708:719:729| Int)
(declare-const havoc Int)
(declare-const |return':706:720:730| Int)
(declare-const |param0':707:721:731| Int)
(declare-const |havoc:3:24:728| Int)
(assert (and (<= (- havoc) 0) (<= (+ havoc -3) 0) (<= (- |havoc:3:24:728|) 0)
               (<= (+ |havoc:3:24:728| -23) 0)
               (= (+ |return':706:720:730| (- |param1':708:719:729|) -1) 0)
               (= |param0':707:721:731| 0) (<= (+ (- havoc) 2) 0)
               (< (+ |return':706:720:730| -4) 0)))
(check-sat)
